c nombre: 51
c densidad: 0.5
p edges 50 626
e 1 2
e 1 7
e 1 8
e 1 12
e 1 15
e 1 16
e 1 17
e 1 18
e 1 19
e 1 20
e 1 21
e 1 25
e 1 28
e 1 29
e 1 30
e 1 31
e 1 32
e 1 35
e 1 38
e 1 45
e 2 4
e 2 7
e 2 9
e 2 11
e 2 12
e 2 13
e 2 14
e 2 16
e 2 17
e 2 20
e 2 21
e 2 24
e 2 25
e 2 29
e 2 30
e 2 31
e 2 32
e 2 33
e 2 34
e 2 40
e 2 44
e 2 45
e 2 46
e 2 47
e 2 49
e 2 50
e 3 5
e 3 6
e 3 8
e 3 9
e 3 10
e 3 11
e 3 15
e 3 16
e 3 18
e 3 25
e 3 27
e 3 28
e 3 34
e 3 35
e 3 36
e 3 37
e 3 38
e 3 41
e 3 43
e 3 44
e 3 45
e 3 47
e 3 48
e 3 50
e 4 5
e 4 6
e 4 9
e 4 11
e 4 13
e 4 14
e 4 16
e 4 18
e 4 19
e 4 20
e 4 22
e 4 23
e 4 24
e 4 25
e 4 28
e 4 29
e 4 31
e 4 32
e 4 33
e 4 35
e 4 36
e 4 37
e 4 42
e 4 43
e 4 44
e 4 45
e 4 48
e 4 49
e 5 6
e 5 8
e 5 10
e 5 11
e 5 18
e 5 21
e 5 24
e 5 26
e 5 27
e 5 31
e 5 33
e 5 34
e 5 35
e 5 38
e 5 39
e 5 41
e 5 43
e 5 44
e 5 45
e 5 46
e 5 48
e 5 49
e 6 11
e 6 12
e 6 15
e 6 17
e 6 18
e 6 20
e 6 23
e 6 24
e 6 26
e 6 27
e 6 28
e 6 31
e 6 32
e 6 36
e 6 38
e 6 39
e 6 40
e 6 41
e 6 43
e 6 45
e 6 48
e 6 50
e 7 10
e 7 13
e 7 14
e 7 15
e 7 16
e 7 17
e 7 19
e 7 22
e 7 23
e 7 27
e 7 28
e 7 31
e 7 33
e 7 36
e 7 39
e 7 40
e 7 41
e 7 42
e 7 43
e 7 44
e 7 46
e 7 47
e 7 48
e 7 49
e 8 11
e 8 12
e 8 13
e 8 14
e 8 15
e 8 17
e 8 18
e 8 19
e 8 22
e 8 24
e 8 27
e 8 28
e 8 30
e 8 31
e 8 32
e 8 33
e 8 41
e 8 43
e 8 46
e 8 47
e 8 48
e 8 49
e 9 11
e 9 14
e 9 16
e 9 19
e 9 20
e 9 22
e 9 29
e 9 34
e 9 38
e 9 40
e 9 41
e 9 45
e 9 48
e 9 49
e 10 12
e 10 14
e 10 15
e 10 17
e 10 19
e 10 20
e 10 21
e 10 22
e 10 23
e 10 24
e 10 26
e 10 28
e 10 29
e 10 31
e 10 32
e 10 33
e 10 34
e 10 39
e 10 40
e 10 41
e 10 44
e 10 45
e 10 47
e 10 48
e 11 12
e 11 13
e 11 16
e 11 21
e 11 22
e 11 23
e 11 24
e 11 27
e 11 33
e 11 34
e 11 36
e 11 37
e 11 38
e 11 42
e 11 43
e 11 44
e 11 45
e 11 47
e 11 49
e 12 15
e 12 18
e 12 20
e 12 22
e 12 23
e 12 24
e 12 25
e 12 26
e 12 30
e 12 31
e 12 32
e 12 35
e 12 38
e 12 39
e 12 40
e 12 41
e 12 43
e 12 45
e 12 46
e 12 48
e 12 49
e 13 15
e 13 19
e 13 21
e 13 24
e 13 27
e 13 29
e 13 33
e 13 39
e 13 40
e 13 44
e 13 45
e 13 47
e 13 50
e 14 17
e 14 18
e 14 19
e 14 22
e 14 24
e 14 25
e 14 28
e 14 30
e 14 31
e 14 32
e 14 33
e 14 34
e 14 38
e 14 40
e 14 41
e 14 42
e 14 45
e 14 46
e 14 48
e 14 50
e 15 16
e 15 19
e 15 23
e 15 25
e 15 30
e 15 31
e 15 36
e 15 42
e 15 44
e 15 46
e 15 47
e 15 50
e 16 17
e 16 18
e 16 20
e 16 21
e 16 22
e 16 23
e 16 24
e 16 26
e 16 27
e 16 30
e 16 31
e 16 32
e 16 33
e 16 34
e 16 35
e 16 36
e 16 37
e 16 39
e 16 40
e 16 42
e 16 43
e 16 44
e 16 46
e 16 47
e 16 49
e 16 50
e 17 18
e 17 20
e 17 21
e 17 23
e 17 24
e 17 27
e 17 28
e 17 29
e 17 30
e 17 31
e 17 33
e 17 34
e 17 35
e 17 36
e 17 38
e 17 39
e 17 40
e 17 45
e 17 47
e 17 48
e 18 20
e 18 21
e 18 24
e 18 28
e 18 30
e 18 32
e 18 33
e 18 36
e 18 37
e 18 38
e 18 39
e 18 42
e 18 43
e 18 46
e 18 47
e 18 50
e 19 21
e 19 23
e 19 27
e 19 30
e 19 31
e 19 32
e 19 34
e 19 35
e 19 36
e 19 37
e 19 38
e 19 39
e 19 41
e 19 42
e 19 44
e 19 46
e 19 47
e 20 21
e 20 22
e 20 24
e 20 26
e 20 27
e 20 31
e 20 32
e 20 33
e 20 34
e 20 36
e 20 37
e 20 40
e 20 41
e 20 44
e 20 47
e 20 48
e 20 49
e 20 50
e 21 23
e 21 24
e 21 25
e 21 27
e 21 28
e 21 30
e 21 31
e 21 33
e 21 36
e 21 37
e 21 38
e 21 39
e 21 40
e 21 44
e 21 47
e 21 48
e 21 49
e 21 50
e 22 23
e 22 25
e 22 28
e 22 33
e 22 36
e 22 42
e 22 44
e 22 45
e 22 49
e 22 50
e 23 26
e 23 27
e 23 28
e 23 29
e 23 30
e 23 31
e 23 34
e 23 35
e 23 36
e 23 37
e 23 38
e 23 43
e 23 45
e 23 50
e 24 26
e 24 29
e 24 30
e 24 32
e 24 34
e 24 35
e 24 38
e 24 42
e 24 47
e 24 48
e 24 49
e 24 50
e 25 28
e 25 29
e 25 30
e 25 34
e 25 37
e 25 40
e 25 41
e 25 42
e 25 45
e 25 47
e 25 48
e 26 28
e 26 29
e 26 38
e 26 39
e 26 40
e 26 43
e 26 47
e 26 48
e 26 49
e 27 29
e 27 31
e 27 32
e 27 34
e 27 35
e 27 37
e 27 38
e 27 42
e 27 45
e 27 46
e 27 47
e 27 50
e 28 29
e 28 34
e 28 35
e 28 38
e 28 39
e 28 44
e 28 46
e 28 47
e 28 50
e 29 30
e 29 31
e 29 32
e 29 33
e 29 35
e 29 37
e 29 38
e 29 41
e 29 43
e 29 44
e 29 47
e 29 48
e 29 49
e 30 32
e 30 34
e 30 35
e 30 41
e 30 42
e 30 43
e 30 44
e 30 46
e 30 47
e 30 48
e 30 50
e 31 34
e 31 35
e 31 37
e 31 38
e 31 40
e 31 43
e 31 46
e 31 47
e 31 48
e 31 49
e 31 50
e 32 33
e 32 35
e 32 36
e 32 37
e 32 38
e 32 40
e 32 47
e 32 48
e 32 49
e 32 50
e 33 34
e 33 35
e 33 36
e 33 38
e 33 39
e 33 44
e 34 36
e 34 38
e 34 39
e 34 41
e 34 45
e 34 47
e 34 48
e 35 36
e 35 43
e 35 44
e 35 45
e 35 46
e 35 48
e 35 49
e 36 37
e 36 40
e 36 42
e 36 46
e 36 48
e 36 49
e 37 38
e 37 39
e 37 41
e 37 42
e 37 45
e 37 46
e 37 47
e 37 48
e 37 50
e 38 39
e 38 40
e 38 42
e 38 43
e 38 44
e 38 49
e 39 42
e 39 43
e 39 44
e 39 47
e 39 49
e 39 50
e 40 43
e 40 44
e 40 45
e 40 49
e 40 50
e 41 42
e 41 43
e 41 44
e 41 45
e 41 47
e 41 48
e 42 45
e 42 46
e 42 49
e 43 45
e 43 47
e 43 50
e 44 47
e 44 49
e 44 50
e 45 47
e 45 48
e 45 49
e 46 47
e 46 48
e 46 49
e 46 50
e 47 48
e 47 49
e 48 49
e 48 50
